RT is False
Default write of storage_offers_DA.csv just to have a file (but constraint should be inactive)
Reading model...
...model read.
creating competitive generators file...
...competitive generators recorded.
Loading data...
.. day-ahead data with real-time VRE data read.
Compiling instance...
...instance created.
Creating Offer Mitigation (model will solve as dispatch if TRUE)...
...storage offer mitigation file created
Converting model to MPEC...
...converted
NOTE: initial MIP solve with only storage competitive to get feasible solution
Solving...

Welcome to IBM(R) ILOG(R) CPLEX(R) Interactive Optimizer 12.9.0.0
  with Simplex, Mixed Integer & Barrier Optimizers
5725-A06 5725-A29 5724-Y48 5724-Y49 5724-Y54 5724-Y55 5655-Y21
Copyright IBM Corp. 1988, 2019.  All Rights Reserved.

Type 'help' for a list of available commands.
Type 'help' followed by a command name for more
information on commands.

CPLEX> Logfile 'cplex.log' closed.
Logfile 'C:\Users\llavin\Desktop\test826\logs\tmpsts54ewd.cplex.log' open.
CPLEX> New value for parallel optimization mode: -1
CPLEX> New value for mixed integer optimality gap tolerance: 0.01
CPLEX> New value for integrality tolerance: 1e-09
CPLEX> New value for feasibility tolerance: 0.001
CPLEX> New value for deterministic time limit in ticks: 75000
CPLEX> Problem 'C:\Users\llavin\Desktop\test826\logs\tmplvq3v9vu.pyomo.lp' read.
Read time = 0.24 sec. (14.73 ticks)
CPLEX> Problem name         : C:\Users\llavin\Desktop\test826\logs\tmplvq3v9vu.pyomo.lp
Objective sense      : Maximize
Variables            :   53805  [Nneg: 1,  Box: 22000,  Free: 4464,
                                 Binary: 27340]
Objective nonzeros   :    9029
Linear constraints   :  123205  [Less: 41346,  Greater: 59096,  Equal: 22763]
  Nonzeros           :  291753
  RHS nonzeros       :   67491

Variables            : Min LB: -5000.000        Max UB: 1000000.       
Objective nonzeros   : Min   : 0.1750000        Max   : 2500.000       
Linear constraints   :
  Nonzeros           : Min   : 0.1750000        Max   : 1000000.       
  RHS nonzeros       : Min   : 0.1750000        Max   : 1000000.       
CPLEX> CPXPARAM_Parallel                                -1
CPXPARAM_Simplex_Tolerances_Feasibility          0.001
CPXPARAM_DetTimeLimit                            75000
CPXPARAM_MIP_Tolerances_MIPGap                   0.01
CPXPARAM_MIP_Tolerances_Integrality              1.0000000000000001e-09
Tried aggregator 3 times.
MIP Presolve eliminated 88705 rows and 19029 columns.
MIP Presolve added 3374 rows and 0 columns.
MIP Presolve modified 24866 coefficients.
Aggregator did 12971 substitutions.
Reduced MIP has 24903 rows, 21249 columns, and 71010 nonzeros.
Reduced MIP has 8398 binaries, 0 generals, 0 SOSs, and 0 indicators.
Presolve time = 0.28 sec. (175.99 ticks)
Probing fixed 395 vars, tightened 2832 bounds.
Probing time = 1.28 sec. (907.08 ticks)
Tried aggregator 2 times.
MIP Presolve eliminated 889 rows and 792 columns.
MIP Presolve modified 2213 coefficients.
Aggregator did 43 substitutions.
Reduced MIP has 23971 rows, 20414 columns, and 68301 nonzeros.
Reduced MIP has 8003 binaries, 0 generals, 0 SOSs, and 0 indicators.
Presolve time = 0.11 sec. (68.16 ticks)
Probing time = 0.05 sec. (16.30 ticks)
Clique table members: 6463.
MIP emphasis: balance optimality and feasibility.
MIP search method: dynamic search.
Parallel mode: opportunistic, using up to 32 threads.
Root relaxation solution time = 0.41 sec. (517.38 ticks)

        Nodes                                         Cuts/
   Node  Left     Objective  IInf  Best Integer    Best Bound    ItCnt     Gap

      0     0      -34.5441   647                    -34.5441     5880         
      0     0      -34.5441     1                     Cuts: 5     5884         
      0     0      -34.5441     1                 Flowcuts: 1     5885         
      0     8    infeasible                       Impl Bds: 5     6036         
Elapsed time = 8.09 sec. (4662.27 ticks, tree = 0.02 MB, solutions = 0)
    494   198    infeasible                          -47.9426    17815         
    903   337    infeasible                          -47.9426    28536         
   1480   589    -1659.7694     4                    -47.9426    41737         
   2056   828     -368.1338     4                    -47.9426    47458         
*  2612  1081      integral     0     -280.4868      -47.9426    53563   82.91%
   2632  1213     -446.3437     1     -280.4868      -47.9426    55753   82.91%
   3244   719     -232.4406     3     -280.4868      -47.9426    62539   82.91%
   3923   602     -224.3238     5     -280.4868      -60.2312    65181   78.53%
   4601   933     -230.5743     1     -280.4868      -68.7069    71310   75.50%
   5249  1140     -193.4019     3     -280.4868      -68.7069    72983   75.50%
   7846  2398     -272.6025     5     -280.4868     -104.4012    82702   62.78%
Elapsed time = 23.72 sec. (7768.11 ticks, tree = 14.75 MB, solutions = 1)
*  8183     0      integral     0     -280.4868                  90738     --- 

Cover cuts applied:  3
Implied bound cuts applied:  28
Flow cuts applied:  6
Mixed integer rounding cuts applied:  30
Gomory fractional cuts applied:  10

Root node processing (before b&c):
  Real time             =    7.11 sec. (4646.42 ticks)
Parallel b&c, 32 threads:
  Real time             =   19.86 sec. (5186.31 ticks)
  Sync time (average)   =    0.79 sec.
  Wait time (average)   =    0.00 sec.
                          ------------
Total (root+branch&cut) =   26.97 sec. (9832.73 ticks)

Solution pool: 1 solution saved.

MIP - Integer optimal solution:  Objective = -2.8048676418e+02
Solution time =   27.03 sec.  Iterations = 90738  Nodes = 8183
Deterministic time = 9832.88 ticks  (363.76 ticks/sec)

CPLEX> Incumbent solution written to file 'C:\Users\llavin\Desktop\test826\logs\tmpbxvmdjoj.cplex.sol'.
CPLEX> NOTE: no warmstart specified for MIP iteration, default behavior is true
NOTE: resolving with all competitive generators using storage-only solution to warmstart
Solving...

Welcome to IBM(R) ILOG(R) CPLEX(R) Interactive Optimizer 12.9.0.0
  with Simplex, Mixed Integer & Barrier Optimizers
5725-A06 5725-A29 5724-Y48 5724-Y49 5724-Y54 5724-Y55 5655-Y21
Copyright IBM Corp. 1988, 2019.  All Rights Reserved.

Type 'help' for a list of available commands.
Type 'help' followed by a command name for more
information on commands.

CPLEX> Logfile 'cplex.log' closed.
Logfile 'C:\Users\llavin\Desktop\test826\logs\tmpqluwcvwx.cplex.log' open.
CPLEX> New value for parallel optimization mode: -1
CPLEX> New value for mixed integer optimality gap tolerance: 0.01
CPLEX> New value for integrality tolerance: 1e-09
CPLEX> New value for feasibility tolerance: 0.001
CPLEX> New value for deterministic time limit in ticks: 75000
CPLEX> Problem 'C:\Users\llavin\Desktop\test826\logs\tmphk1rr7z1.pyomo.lp' read.
Read time = 0.23 sec. (14.75 ticks)
CPLEX> MIP start file 'C:\Users\llavin\Desktop\test826\logs\tmp11ca5zhu.cplex.mst' read.
CPLEX> Problem name         : C:\Users\llavin\Desktop\test826\logs\tmphk1rr7z1.pyomo.lp
Objective sense      : Maximize
Variables            :   54525  [Nneg: 1,  Box: 22720,  Free: 4464,
                                 Binary: 27340]
Objective nonzeros   :    9749
Linear constraints   :  123205  [Less: 41346,  Greater: 59096,  Equal: 22763]
  Nonzeros           :  291753
  RHS nonzeros       :   67491

Variables            : Min LB: -5000.000        Max UB: 1000000.       
Objective nonzeros   : Min   : 0.1750000        Max   : 2500.000       
Linear constraints   :
  Nonzeros           : Min   : 0.1750000        Max   : 1000000.       
  RHS nonzeros       : Min   : 0.1750000        Max   : 1000000.       
CPLEX> CPXPARAM_Parallel                                -1
CPXPARAM_Simplex_Tolerances_Feasibility          0.001
CPXPARAM_DetTimeLimit                            75000
CPXPARAM_MIP_Tolerances_MIPGap                   0.01
CPXPARAM_MIP_Tolerances_Integrality              1.0000000000000001e-09
Warning:  No solution found from 1 MIP starts.
Retaining values of one MIP start for possible repair.
Tried aggregator 3 times.
MIP Presolve eliminated 88705 rows and 19749 columns.
MIP Presolve added 3374 rows and 0 columns.
MIP Presolve modified 24866 coefficients.
Aggregator did 12971 substitutions.
Reduced MIP has 24903 rows, 21249 columns, and 71010 nonzeros.
Reduced MIP has 8398 binaries, 0 generals, 0 SOSs, and 0 indicators.
Presolve time = 0.30 sec. (176.36 ticks)
Probing fixed 395 vars, tightened 2832 bounds.
Probing time = 1.25 sec. (907.08 ticks)
Tried aggregator 2 times.
MIP Presolve eliminated 889 rows and 792 columns.
MIP Presolve modified 2213 coefficients.
Aggregator did 43 substitutions.
Reduced MIP has 23971 rows, 20414 columns, and 68301 nonzeros.
Reduced MIP has 8003 binaries, 0 generals, 0 SOSs, and 0 indicators.
Presolve time = 0.09 sec. (68.16 ticks)
Probing time = 0.03 sec. (16.30 ticks)
Clique table members: 6463.
MIP emphasis: balance optimality and feasibility.
MIP search method: dynamic search.
Parallel mode: opportunistic, using up to 32 threads.
Root relaxation solution time = 0.39 sec. (517.38 ticks)

        Nodes                                         Cuts/
   Node  Left     Objective  IInf  Best Integer    Best Bound    ItCnt     Gap

      0     0      -34.5441   647                    -34.5441     5880         
      0     0      -34.5441     1                     Cuts: 5     5884         
      0     0      -34.5441     1                 Flowcuts: 1     5885         
Repair heuristic found nothing.
      0     9    infeasible                       Impl Bds: 4     6087         
Elapsed time = 8.38 sec. (4770.96 ticks, tree = 0.02 MB, solutions = 0)
    514    72    infeasible                          -47.9426     6980         
    919   408     -153.6561     1                    -47.9426    29225         
   1459   626     -124.9611     1                    -47.9426    37912         
   1954  1074    infeasible                          -60.2312    44946         
*  2161+  709                         -234.6362      -60.2312            74.33%
   2734   495     -104.4012     3     -234.6362      -60.2312    51974   74.33%
   3486   580     -104.4012     6     -234.6362      -60.2312    55195   74.33%
   4218   856        cutoff           -234.6362      -60.2312    58316   74.33%
   4856  1039        cutoff           -234.6362      -73.2145    61333   68.80%
   7926  1433    infeasible           -234.6362     -112.3579    71303   52.11%
Elapsed time = 23.16 sec. (7731.03 ticks, tree = 6.94 MB, solutions = 1)
*  8217     0      integral     0     -234.6362                  79544     --- 

Cover cuts applied:  3
Mixed integer rounding cuts applied:  1
Gomory fractional cuts applied:  2

Root node processing (before b&c):
  Real time             =    7.34 sec. (4755.70 ticks)
Parallel b&c, 32 threads:
  Real time             =   19.17 sec. (5015.87 ticks)
  Sync time (average)   =    1.08 sec.
  Wait time (average)   =    0.00 sec.
                          ------------
Total (root+branch&cut) =   26.51 sec. (9771.57 ticks)

Solution pool: 1 solution saved.

MIP - Integer optimal solution:  Objective = -2.3463617731e+02
Solution time =   26.53 sec.  Iterations = 79544  Nodes = 8217
Deterministic time = 9771.73 ticks  (368.31 ticks/sec)

CPLEX> Incumbent solution written to file 'C:\Users\llavin\Desktop\test826\logs\tmpr8bena3k.cplex.sol'.
CPLEX> Exporting results... 
